
7 6 21 27 21 12 21 27 27 27 4 14 23 23 6 7 23 8 16 27 27 16 23 21 23 27 27 14 4 21 6 4 4 16 27 6 8 8 16 16 7 8 6 4 8 4 8 21 6 14 27 16 21 16 8 6 7 8 27 7 4 21 7 8 8 12 23 14 6 12 7 12 6 8 23 23 8 23 8 16 23 14 8 7 4 23 6 21 27 7 27 6 7 7 23 8 27 6 23 6 14 21 12 7 4 27 4 16 16 8 14 4 27 12 12 8 27 7 14 8 14 12 14 6 4 16 21 12 4 14 27 21 12 14 23 8 23 8 27 14 12 27 12 12 7 23 16 21 27 7 27 14 23 27 8 12 21 16 8 8 23 27 23 21 23 27 23 4 23 21 23 8 14 14 4 21 27 14 4 14 23 21 21 6 12 8 12 23 27 21 21 21 6 4 7 12 7 21 14 6 
